Minimize
  0.00132223 x(1) - 9.407e-05 x(2) + 0.00457315 x(3) + [
   0.0032892 x(1) * x(4) + 0.0037222 x(1) * x(5) + 0.002524 x(1) * x(6)
   + 0.003125 x(2) * x(7) + 0.0183208 x(2) * x(8) + 0.0153516 x(2) * x(9)
   - 0.003496 x(3) * x(10) - 0.0005166 x(3) * x(11)
   - 0.0009382 x(3) * x(12) ] / 2 
Subject To
 con1: x(50) + x(51) = 1
 con2: x(46) + x(47) + x(48) + x(49) = 1
 con3: x(10) + x(11) + x(12) + x(45) = 1
 con4: x(42) + x(43) + x(44) = 1
 con5: x(39) + x(40) + x(41) = 1
 con6: x(7) + x(8) + x(9) + x(38) = 1
 con7: x(34) + x(35) + x(36) + x(37) = 1
 con8: x(32) + x(33) = 1
 con9: x(4) + x(5) + x(6) + x(31) = 1
 con10: x(29) - x(30) - x(62) = 0
 con11: x(25) - x(26) - x(27) - x(28) - x(61) = 0
 con12: x(22) - x(23) - x(24) - x(60) = 0
 con13: x(19) - x(20) - x(21) - x(59) = 0
 con14: x(15) - x(16) - x(17) - x(18) - x(58) = 0
 con15: x(13) - x(14) - x(57) = 0
 con16: x(3) - x(23) - x(17) - x(54) = 0
 con17: x(2) - x(27) - x(16) - x(53) = 0
 con18: x(1) - x(26) - x(20) - x(52) = 0
 con19: x(54) + x(53) + x(52) + x(55) + x(56) = 600

 QCP_row_for_con20: 0.25 x(55) + [ x(51) * x(30) + x(49) * x(28)
   + x(44) * x(24) + x(37) * x(18) ] = 100
 QCP_row_for_con21: 0.167 x(55) + [ x(50) * x(30) + x(48) * x(28)
   + x(43) * x(24) + x(41) * x(21) + x(36) * x(18) ] = 40
 QCP_row_for_con22: [ - 0.85 x(1) * x(4) + x(32) * x(13) ] = 0
 QCP_row_for_con23: 0.222 x(55) + [ x(47) * x(28) + x(42) * x(24)
   + x(40) * x(21) + x(35) * x(18) + x(33) * x(14) ] = 100
 QCP_row_for_con24: [ - 0.85 x(2) * x(8) + x(40) * x(19) ] = 0
 QCP_row_for_con25: 0.25 x(55) + [ x(46) * x(28) + x(39) * x(21)
   + x(34) * x(18) + x(32) * x(14) ] = 50
 QCP_row_for_con26: [ - x(3) * x(12) + x(48) * x(25) ] = 0
 QCP_row_for_con27: 0.25 x(54) + [ - x(3) * x(45) + x(44) * x(23)
   + x(37) * x(17) ] = 0
 QCP_row_for_con28: 0.167 x(54) + [ - x(3) * x(12) + x(43) * x(23)
   + x(36) * x(17) ] = 0
 QCP_row_for_con29: [ - x(1) * x(5) + x(35) * x(15)
   ] = 0
 QCP_row_for_con30: 0.333 x(54) + [ - x(3) * x(11) + x(42) * x(23)
   + x(35) * x(17) ] = 0
 QCP_row_for_con31: [ - 0.85 x(2) * x(9) + x(43) * x(22) ] = 0
 QCP_row_for_con32: 0.25 x(54) + [ - x(3) * x(10) + x(34) * x(17)
   ] = 0
 QCP_row_for_con33: 0.25 x(53) + [ - x(2) * x(38) + x(49) * x(27)
   + x(37) * x(16) ] = 0
 QCP_row_for_con34: [ - 0.85 x(3) * x(45) + x(51) * x(29) ] = 0
 QCP_row_for_con35: 0.167 x(53) + [ - x(2) * x(9) + x(48) * x(27)
   + x(36) * x(16) ] = 0
 QCP_row_for_con36: 0.333 x(53) + [ - x(2) * x(8) + x(47) * x(27)
   + x(35) * x(16) ] = 0
 QCP_row_for_con37: [ x(1) * x(4) - x(34) * x(15) - x(32) * x(13) ] = 0
 QCP_row_for_con38: 0.25 x(53) + [ - x(2) * x(7) + x(46) * x(27)
   + x(34) * x(16) ] = 0
 QCP_row_for_con39: 0.25 x(52) + [ - x(1) * x(31) + x(49) * x(26)
   ] = 0
 QCP_row_for_con40: 0.167 x(52) + [ - x(1) * x(6) + x(48) * x(26)
   + x(41) * x(20) ] = 0
 QCP_row_for_con41: [ x(1) * x(5) - x(35) * x(15)
   - x(33) * x(13) ] = 0
 QCP_row_for_con42: 0.333 x(52) + [ - x(1) * x(5) + x(47) * x(26)
   + x(40) * x(20) ] = 0
 QCP_row_for_con43: 0.25 x(52) + [ - x(1) * x(4) + x(46) * x(26)
   + x(39) * x(20) ] = 0
 QCP_row_for_con44: [ x(3) * x(45) - x(51) * x(29)
   - x(49) * x(25) ] = 0
 QCP_row_for_con45: [ x(1) * x(6) - x(36) * x(15) ]
   = 0
 QCP_row_for_con46: [ x(3) * x(12) - x(50) * x(29)
   - x(48) * x(25) ] = 0
 QCP_row_for_con47: [ x(1) * x(31) - x(37) * x(15) ]
   = 0
 QCP_row_for_con48: [ x(3) * x(11) - x(47) * x(25) ]
   = 0
 QCP_row_for_con49: [ x(3) * x(10) - x(46) * x(25) ]
   = 0
 QCP_row_for_con50: [ x(2) * x(7) - x(39) * x(19) ]
   = 0
 QCP_row_for_con51: [ x(2) * x(38) - x(44) * x(22) ]
   = 0
 QCP_row_for_con52: [ x(2) * x(8) - x(42) * x(22)
   - x(40) * x(19) ] = 0
 QCP_row_for_con53: [ x(2) * x(9) - x(43) * x(22)
   - x(41) * x(19) ] = 0
Bounds
 x(1) <= 600
 x(2) <= 600
 x(3) <= 600
 x(4) <= 1
 x(5) <= 1
 x(6) <= 1
 x(7) <= 1
 x(8) <= 1
 x(9) <= 1
 x(10) <= 1
 x(11) <= 1
 x(12) <= 1
 x(50) <= 1
 x(51) <= 1
 x(46) <= 1
 x(47) <= 1
 x(48) <= 1
 x(49) <= 1
 x(45) <= 1
 x(42) <= 1
 x(43) <= 1
 x(44) <= 1
 x(39) <= 1
 x(40) <= 1
 x(41) <= 1
 x(38) <= 1
 x(34) <= 1
 x(35) <= 1
 x(36) <= 1
 x(37) <= 1
 x(32) <= 1
 x(33) <= 1
 x(31) <= 1
 x(29) <= 600
 x(30) <= 600
 x(62) <= 600
 x(25) <= 600
 x(26) <= 600
 x(27) <= 600
 x(28) <= 600
 x(61) <= 600
 x(22) <= 600
 x(23) <= 600
 x(24) <= 600
 x(60) <= 600
 x(19) <= 600
 x(20) <= 600
 x(21) <= 600
 x(59) <= 600
 x(15) <= 600
 x(16) <= 600
 x(17) <= 600
 x(18) <= 600
 x(58) <= 600
 x(13) <= 600
 x(14) <= 600
 x(57) <= 600
 x(54) <= 600
 x(53) <= 600
 x(52) <= 600
 x(55) <= 600
 x(56) <= 600
End
